p cnf 967 2484
51 -2 -700 0
-51 2 0
-51 700 0
52 -51 -3 0
-52 51 0
-52 3 0
53 -701 -4 0
-53 701 0
-53 4 0
54 -53 -702 0
-54 53 0
-54 702 0
55 -703 -704 0
-55 703 0
-55 704 0
56 -705 -706 0
-56 705 0
-56 706 0
57 -56 -9 0
-57 56 0
-57 9 0
58 -707 -55 0
-58 707 0
-58 55 0
59 -708 -2 0
-59 708 0
-59 2 0
60 -59 -11 0
-60 59 0
-60 11 0
61 -709 -58 0
-61 709 0
-61 58 0
62 -13 -12 0
-62 13 0
-62 12 0
63 -62 -2 0
-63 62 0
-63 2 0
64 -710 -61 0
-64 710 0
-64 61 0
65 -711 -712 0
-65 711 0
-65 712 0
66 -65 -713 0
-66 65 0
-66 713 0
67 -714 -64 0
-67 714 0
-67 64 0
68 -715 -16 0
-68 715 0
-68 16 0
69 -68 -716 0
-69 68 0
-69 716 0
70 -717 -67 0
-70 717 0
-70 67 0
71 -718 -1 0
-71 718 0
-71 1 0
72 -71 -719 0
-72 71 0
-72 719 0
73 -720 -70 0
-73 720 0
-73 70 0
74 -721 -722 0
-74 721 0
-74 722 0
75 -74 -22 0
-75 74 0
-75 22 0
76 -723 -73 0
-76 723 0
-76 73 0
77 -23 -8 0
-77 23 0
-77 8 0
78 -77 -15 0
-78 77 0
-78 15 0
79 -724 -76 0
-79 724 0
-79 76 0
80 -725 -726 0
-80 725 0
-80 726 0
81 -80 -727 0
-81 80 0
-81 727 0
82 -728 -79 0
-82 728 0
-82 79 0
83 -713 -726 0
-83 713 0
-83 726 0
84 -83 -729 0
-84 83 0
-84 729 0
85 -730 -82 0
-85 730 0
-85 82 0
86 -731 -706 0
-86 731 0
-86 706 0
87 -86 -732 0
-87 86 0
-87 732 0
88 -733 -85 0
-88 733 0
-88 85 0
89 -29 -28 0
-89 29 0
-89 28 0
90 -89 -734 0
-90 89 0
-90 734 0
91 -735 -88 0
-91 735 0
-91 88 0
92 -9 -727 0
-92 9 0
-92 727 0
93 -92 -6 0
-93 92 0
-93 6 0
94 -736 -91 0
-94 736 0
-94 91 0
95 -30 -2 0
-95 30 0
-95 2 0
96 -95 -737 0
-96 95 0
-96 737 0
97 -738 -94 0
-97 738 0
-97 94 0
98 -739 -740 0
-98 739 0
-98 740 0
99 -98 -9 0
-99 98 0
-99 9 0
100 -741 -97 0
-100 741 0
-100 97 0
101 -35 -34 0
-101 35 0
-101 34 0
102 -101 -742 0
-102 101 0
-102 742 0
103 -743 -100 0
-103 743 0
-103 100 0
104 -722 -705 0
-104 722 0
-104 705 0
105 -104 -37 0
-105 104 0
-105 37 0
106 -744 -103 0
-106 744 0
-106 103 0
107 -38 -711 0
-107 38 0
-107 711 0
108 -107 -6 0
-108 107 0
-108 6 0
109 -745 -106 0
-109 745 0
-109 106 0
110 -746 -11 0
-110 746 0
-110 11 0
111 -110 -747 0
-111 110 0
-111 747 0
112 -748 -109 0
-112 748 0
-112 109 0
113 -24 -2 0
-113 24 0
-113 2 0
114 -113 -8 0
-114 113 0
-114 8 0
115 -749 -112 0
-115 749 0
-115 112 0
116 -750 -7 0
-116 750 0
-116 7 0
117 -116 -713 0
-117 116 0
-117 713 0
118 -751 -115 0
-118 751 0
-118 115 0
119 -41 -711 0
-119 41 0
-119 711 0
120 -119 -22 0
-120 119 0
-120 22 0
121 -752 -118 0
-121 752 0
-121 118 0
122 -711 -12 0
-122 711 0
-122 12 0
123 -122 -753 0
-123 122 0
-123 753 0
124 -754 -121 0
-124 754 0
-124 121 0
125 -14 -755 0
-125 14 0
-125 755 0
126 -125 -43 0
-126 125 0
-126 43 0
127 -756 -124 0
-127 756 0
-127 124 0
128 -746 -731 0
-128 746 0
-128 731 0
129 -128 -30 0
-129 128 0
-129 30 0
130 -757 -127 0
-130 757 0
-130 127 0
131 -39 -758 0
-131 39 0
-131 758 0
132 -131 -705 0
-132 131 0
-132 705 0
133 -759 -130 0
-133 759 0
-133 130 0
134 -760 -726 0
-134 760 0
-134 726 0
135 -134 -702 0
-135 134 0
-135 702 0
136 -761 -133 0
-136 761 0
-136 133 0
137 -44 -42 0
-137 44 0
-137 42 0
138 -137 -742 0
-138 137 0
-138 742 0
139 -762 -136 0
-139 762 0
-139 136 0
140 -13 -706 0
-140 13 0
-140 706 0
141 -140 -729 0
-141 140 0
-141 729 0
142 -763 -139 0
-142 763 0
-142 139 0
143 -764 -7 0
-143 764 0
-143 7 0
144 -143 -18 0
-144 143 0
-144 18 0
145 -765 -142 0
-145 765 0
-145 142 0
146 -45 -708 0
-146 45 0
-146 708 0
147 -146 -17 0
-147 146 0
-147 17 0
148 -766 -145 0
-148 766 0
-148 145 0
149 -33 -708 0
-149 33 0
-149 708 0
150 -149 -39 0
-150 149 0
-150 39 0
151 -767 -148 0
-151 767 0
-151 148 0
152 -753 -4 0
-152 753 0
-152 4 0
153 -152 -715 0
-153 152 0
-153 715 0
154 -768 -151 0
-154 768 0
-154 151 0
155 -17 -5 0
-155 17 0
-155 5 0
156 -155 -769 0
-156 155 0
-156 769 0
157 -770 -154 0
-157 770 0
-157 154 0
158 -48 -47 0
-158 48 0
-158 47 0
159 -158 -713 0
-159 158 0
-159 713 0
160 -771 -157 0
-160 771 0
-160 157 0
161 -43 -40 0
-161 43 0
-161 40 0
162 -161 -5 0
-162 161 0
-162 5 0
163 -772 -160 0
-163 772 0
-163 160 0
164 -49 -718 0
-164 49 0
-164 718 0
165 -164 -769 0
-165 164 0
-165 769 0
166 -773 -163 0
-166 773 0
-166 163 0
167 -774 -739 0
-167 774 0
-167 739 0
168 -167 -30 0
-168 167 0
-168 30 0
169 -775 -166 0
-169 775 0
-169 166 0
170 -776 -29 0
-170 776 0
-170 29 0
171 -170 -6 0
-171 170 0
-171 6 0
172 -777 -169 0
-172 777 0
-172 169 0
173 -778 -12 0
-173 778 0
-173 12 0
174 -173 -40 0
-174 173 0
-174 40 0
175 -779 -172 0
-175 779 0
-175 172 0
176 -21 -711 0
-176 21 0
-176 711 0
177 -176 -780 0
-177 176 0
-177 780 0
178 -781 -175 0
-178 781 0
-178 175 0
179 -780 -10 0
-179 780 0
-179 10 0
180 -179 -46 0
-180 179 0
-180 46 0
181 -782 -178 0
-181 782 0
-181 178 0
182 -42 -712 0
-182 42 0
-182 712 0
183 -182 -780 0
-183 182 0
-183 780 0
184 -783 -181 0
-184 783 0
-184 181 0
185 -711 -8 0
-185 711 0
-185 8 0
186 -185 -769 0
-186 185 0
-186 769 0
187 -784 -184 0
-187 784 0
-187 184 0
188 -48 -5 0
-188 48 0
-188 5 0
189 -188 -729 0
-189 188 0
-189 729 0
190 -785 -187 0
-190 785 0
-190 187 0
191 -786 -20 0
-191 786 0
-191 20 0
192 -191 -31 0
-192 191 0
-192 31 0
193 -787 -190 0
-193 787 0
-193 190 0
194 -746 -786 0
-194 746 0
-194 786 0
195 -194 -42 0
-195 194 0
-195 42 0
196 -788 -193 0
-196 788 0
-196 193 0
197 -43 -758 0
-197 43 0
-197 758 0
198 -197 -747 0
-198 197 0
-198 747 0
199 -789 -196 0
-199 789 0
-199 196 0
200 -33 -28 0
-200 33 0
-200 28 0
201 -200 -719 0
-201 200 0
-201 719 0
202 -790 -199 0
-202 790 0
-202 199 0
203 -35 -758 0
-203 35 0
-203 758 0
204 -203 -791 0
-204 203 0
-204 791 0
205 -792 -202 0
-205 792 0
-205 202 0
206 -47 -12 0
-206 47 0
-206 12 0
207 -206 -742 0
-207 206 0
-207 742 0
208 -793 -205 0
-208 793 0
-208 205 0
209 -185 -719 0
-209 185 0
-209 719 0
210 -794 -208 0
-210 794 0
-210 208 0
211 -32 -725 0
-211 32 0
-211 725 0
212 -211 -35 0
-212 211 0
-212 35 0
213 -795 -210 0
-213 795 0
-213 210 0
214 -37 -29 0
-214 37 0
-214 29 0
215 -214 -737 0
-215 214 0
-215 737 0
216 -796 -213 0
-216 796 0
-216 213 0
217 -49 -700 0
-217 49 0
-217 700 0
218 -217 -29 0
-218 217 0
-218 29 0
219 -797 -216 0
-219 797 0
-219 216 0
220 -778 -750 0
-220 778 0
-220 750 0
221 -220 -6 0
-221 220 0
-221 6 0
222 -798 -219 0
-222 798 0
-222 219 0
223 -799 -731 0
-223 799 0
-223 731 0
224 -223 -800 0
-224 223 0
-224 800 0
225 -801 -222 0
-225 801 0
-225 222 0
226 -802 -778 0
-226 802 0
-226 778 0
227 -226 -702 0
-227 226 0
-227 702 0
228 -803 -225 0
-228 803 0
-228 225 0
229 -778 -34 0
-229 778 0
-229 34 0
230 -229 -36 0
-230 229 0
-230 36 0
231 -804 -228 0
-231 804 0
-231 228 0
232 -47 -721 0
-232 47 0
-232 721 0
233 -232 -31 0
-233 232 0
-233 31 0
234 -805 -231 0
-234 805 0
-234 231 0
235 -774 -10 0
-235 774 0
-235 10 0
236 -235 -50 0
-236 235 0
-236 50 0
237 -806 -234 0
-237 806 0
-237 234 0
238 -722 -11 0
-238 722 0
-238 11 0
239 -238 -22 0
-239 238 0
-239 22 0
240 -807 -237 0
-240 807 0
-240 237 0
241 -753 -705 0
-241 753 0
-241 705 0
242 -241 -742 0
-242 241 0
-242 742 0
243 -808 -240 0
-243 808 0
-243 240 0
244 -740 -12 0
-244 740 0
-244 12 0
245 -244 -35 0
-245 244 0
-245 35 0
246 -809 -243 0
-246 809 0
-246 243 0
247 -810 -9 0
-247 810 0
-247 9 0
248 -247 -19 0
-248 247 0
-248 19 0
249 -811 -246 0
-249 811 0
-249 246 0
250 -721 -1 0
-250 721 0
-250 1 0
251 -250 -750 0
-251 250 0
-251 750 0
252 -812 -249 0
-252 812 0
-252 249 0
253 -802 -800 0
-253 802 0
-253 800 0
254 -253 -19 0
-254 253 0
-254 19 0
255 -813 -252 0
-255 813 0
-255 252 0
256 -38 -712 0
-256 38 0
-256 712 0
257 -256 -36 0
-257 256 0
-257 36 0
258 -814 -255 0
-258 814 0
-258 255 0
259 -45 -700 0
-259 45 0
-259 700 0
260 -259 -815 0
-260 259 0
-260 815 0
261 -816 -258 0
-261 816 0
-261 258 0
262 -23 -21 0
-262 23 0
-262 21 0
263 -262 -802 0
-263 262 0
-263 802 0
264 -817 -261 0
-264 817 0
-264 261 0
265 -50 -712 0
-265 50 0
-265 712 0
266 -265 -19 0
-266 265 0
-266 19 0
267 -818 -264 0
-267 818 0
-267 264 0
268 -43 -753 0
-268 43 0
-268 753 0
269 -268 -737 0
-269 268 0
-269 737 0
270 -819 -267 0
-270 819 0
-270 267 0
271 -774 -725 0
-271 774 0
-271 725 0
272 -271 -802 0
-272 271 0
-272 802 0
273 -820 -270 0
-273 820 0
-273 270 0
274 -41 -32 0
-274 41 0
-274 32 0
275 -274 -29 0
-275 274 0
-275 29 0
276 -821 -273 0
-276 821 0
-276 273 0
277 -33 -31 0
-277 33 0
-277 31 0
278 -277 -36 0
-278 277 0
-278 36 0
279 -822 -276 0
-279 822 0
-279 276 0
280 -802 -810 0
-280 802 0
-280 810 0
281 -280 -713 0
-281 280 0
-281 713 0
282 -823 -279 0
-282 823 0
-282 279 0
283 -48 -722 0
-283 48 0
-283 722 0
284 -283 -729 0
-284 283 0
-284 729 0
285 -824 -282 0
-285 824 0
-285 282 0
286 -35 -726 0
-286 35 0
-286 726 0
287 -286 -49 0
-287 286 0
-287 49 0
288 -825 -285 0
-288 825 0
-288 285 0
289 -750 -6 0
-289 750 0
-289 6 0
290 -289 -719 0
-290 289 0
-290 719 0
291 -826 -288 0
-291 826 0
-291 288 0
292 -34 -24 0
-292 34 0
-292 24 0
293 -292 -44 0
-293 292 0
-293 44 0
294 -827 -291 0
-294 827 0
-294 291 0
295 -45 -800 0
-295 45 0
-295 800 0
296 -295 -828 0
-296 295 0
-296 828 0
297 -829 -294 0
-297 829 0
-297 294 0
298 -28 -23 0
-298 28 0
-298 23 0
299 -298 -40 0
-299 298 0
-299 40 0
300 -830 -297 0
-300 830 0
-300 297 0
301 -33 -10 0
-301 33 0
-301 10 0
302 -301 -43 0
-302 301 0
-302 43 0
303 -831 -300 0
-303 831 0
-303 300 0
304 -49 -711 0
-304 49 0
-304 711 0
305 -304 -828 0
-305 304 0
-305 828 0
306 -832 -303 0
-306 832 0
-306 303 0
307 -778 -706 0
-307 778 0
-307 706 0
308 -307 -46 0
-308 307 0
-308 46 0
309 -833 -306 0
-309 833 0
-309 306 0
310 -23 -14 0
-310 23 0
-310 14 0
311 -310 -742 0
-311 310 0
-311 742 0
312 -834 -309 0
-312 834 0
-312 309 0
313 -835 -706 0
-313 835 0
-313 706 0
314 -313 -701 0
-314 313 0
-314 701 0
315 -836 -312 0
-315 836 0
-315 312 0
316 -776 -5 0
-316 776 0
-316 5 0
317 -316 -36 0
-317 316 0
-317 36 0
318 -837 -315 0
-318 837 0
-318 315 0
319 -14 -727 0
-319 14 0
-319 727 0
320 -319 -40 0
-320 319 0
-320 40 0
321 -838 -318 0
-321 838 0
-321 318 0
322 -22 -712 0
-322 22 0
-322 712 0
323 -322 -702 0
-323 322 0
-323 702 0
324 -839 -321 0
-324 839 0
-324 321 0
325 -776 -726 0
-325 776 0
-325 726 0
326 -325 -737 0
-326 325 0
-326 737 0
327 -840 -324 0
-327 840 0
-327 324 0
328 -50 -45 0
-328 50 0
-328 45 0
329 -328 -747 0
-329 328 0
-329 747 0
330 -841 -327 0
-330 841 0
-330 327 0
331 -828 -842 0
-331 828 0
-331 842 0
332 -331 -729 0
-332 331 0
-332 729 0
333 -843 -330 0
-333 843 0
-333 330 0
334 -764 -26 0
-334 764 0
-334 26 0
335 -334 -729 0
-335 334 0
-335 729 0
336 -844 -333 0
-336 844 0
-336 333 0
337 -29 -21 0
-337 29 0
-337 21 0
338 -337 -42 0
-338 337 0
-338 42 0
339 -845 -336 0
-339 845 0
-339 336 0
340 -780 -760 0
-340 780 0
-340 760 0
341 -340 -800 0
-341 340 0
-341 800 0
342 -846 -339 0
-342 846 0
-342 339 0
343 -725 -7 0
-343 725 0
-343 7 0
344 -343 -19 0
-344 343 0
-344 19 0
345 -847 -342 0
-345 847 0
-345 342 0
346 -15 -708 0
-346 15 0
-346 708 0
347 -346 -729 0
-347 346 0
-347 729 0
348 -848 -345 0
-348 848 0
-348 345 0
349 -835 -12 0
-349 835 0
-349 12 0
350 -349 -29 0
-350 349 0
-350 29 0
351 -849 -348 0
-351 849 0
-351 348 0
352 -802 -10 0
-352 802 0
-352 10 0
353 -352 -791 0
-353 352 0
-353 791 0
354 -850 -351 0
-354 850 0
-354 351 0
355 -750 -33 0
-355 750 0
-355 33 0
356 -355 -26 0
-356 355 0
-356 26 0
357 -851 -354 0
-357 851 0
-357 354 0
358 -799 -10 0
-358 799 0
-358 10 0
359 -358 -769 0
-359 358 0
-359 769 0
360 -852 -357 0
-360 852 0
-360 357 0
361 -37 -786 0
-361 37 0
-361 786 0
362 -361 -6 0
-362 361 0
-362 6 0
363 -853 -360 0
-363 853 0
-363 360 0
364 -778 -774 0
-364 778 0
-364 774 0
365 -364 -18 0
-365 364 0
-365 18 0
366 -854 -363 0
-366 854 0
-366 363 0
367 -776 -42 0
-367 776 0
-367 42 0
368 -367 -37 0
-368 367 0
-368 37 0
369 -855 -366 0
-369 855 0
-369 366 0
370 -786 -13 0
-370 786 0
-370 13 0
371 -370 -718 0
-371 370 0
-371 718 0
372 -856 -369 0
-372 856 0
-372 369 0
373 -40 -712 0
-373 40 0
-373 712 0
374 -373 -6 0
-374 373 0
-374 6 0
375 -857 -372 0
-375 857 0
-375 372 0
376 -44 -26 0
-376 44 0
-376 26 0
377 -376 -729 0
-377 376 0
-377 729 0
378 -858 -375 0
-378 858 0
-378 375 0
379 -40 -721 0
-379 40 0
-379 721 0
380 -379 -43 0
-380 379 0
-380 43 0
381 -859 -378 0
-381 859 0
-381 378 0
382 -746 -800 0
-382 746 0
-382 800 0
383 -382 -769 0
-383 382 0
-383 769 0
384 -860 -381 0
-384 860 0
-384 381 0
385 -722 -12 0
-385 722 0
-385 12 0
386 -385 -721 0
-386 385 0
-386 721 0
387 -861 -384 0
-387 861 0
-387 384 0
388 -712 -10 0
-388 712 0
-388 10 0
389 -388 -3 0
-389 388 0
-389 3 0
390 -862 -387 0
-390 862 0
-390 387 0
391 -726 -863 0
-391 726 0
-391 863 0
392 -391 -46 0
-392 391 0
-392 46 0
393 -864 -390 0
-393 864 0
-393 390 0
394 -750 -711 0
-394 750 0
-394 711 0
395 -394 -713 0
-395 394 0
-395 713 0
396 -865 -393 0
-396 865 0
-396 393 0
397 -40 -20 0
-397 40 0
-397 20 0
398 -397 -713 0
-398 397 0
-398 713 0
399 -866 -396 0
-399 866 0
-399 396 0
400 -23 -719 0
-400 23 0
-400 719 0
401 -400 -737 0
-401 400 0
-401 737 0
402 -867 -399 0
-402 867 0
-402 399 0
403 -40 -37 0
-403 40 0
-403 37 0
404 -403 -15 0
-404 403 0
-404 15 0
405 -868 -402 0
-405 868 0
-405 402 0
406 -776 -712 0
-406 776 0
-406 712 0
407 -406 -9 0
-407 406 0
-407 9 0
408 -869 -405 0
-408 869 0
-408 405 0
409 -38 -758 0
-409 38 0
-409 758 0
410 -409 -842 0
-410 409 0
-410 842 0
411 -870 -408 0
-411 870 0
-411 408 0
412 -722 -706 0
-412 722 0
-412 706 0
413 -412 -863 0
-413 412 0
-413 863 0
414 -871 -411 0
-414 871 0
-414 411 0
415 -708 -755 0
-415 708 0
-415 755 0
416 -415 -729 0
-416 415 0
-416 729 0
417 -872 -414 0
-417 872 0
-417 414 0
418 -16 -10 0
-418 16 0
-418 10 0
419 -418 -15 0
-419 418 0
-419 15 0
420 -873 -417 0
-420 873 0
-420 417 0
421 -760 -799 0
-421 760 0
-421 799 0
422 -421 -26 0
-422 421 0
-422 26 0
423 -874 -420 0
-423 874 0
-423 420 0
424 -739 -722 0
-424 739 0
-424 722 0
425 -424 -6 0
-425 424 0
-425 6 0
426 -875 -423 0
-426 875 0
-426 423 0
427 -50 -30 0
-427 50 0
-427 30 0
428 -427 -17 0
-428 427 0
-428 17 0
429 -876 -426 0
-429 876 0
-429 426 0
430 -30 -755 0
-430 30 0
-430 755 0
431 -430 -713 0
-431 430 0
-431 713 0
432 -877 -429 0
-432 877 0
-432 429 0
433 -38 -810 0
-433 38 0
-433 810 0
434 -433 -718 0
-434 433 0
-434 718 0
435 -878 -432 0
-435 878 0
-435 432 0
436 -43 -30 0
-436 43 0
-436 30 0
437 -436 -37 0
-437 436 0
-437 37 0
438 -879 -435 0
-438 879 0
-438 435 0
439 -11 -10 0
-439 11 0
-439 10 0
440 -439 -21 0
-440 439 0
-440 21 0
441 -880 -438 0
-441 880 0
-441 438 0
442 -810 -706 0
-442 810 0
-442 706 0
443 -442 -6 0
-443 442 0
-443 6 0
444 -881 -441 0
-444 881 0
-444 441 0
445 -33 -20 0
-445 33 0
-445 20 0
446 -445 -702 0
-446 445 0
-446 702 0
447 -882 -444 0
-447 882 0
-447 444 0
448 -746 -758 0
-448 746 0
-448 758 0
449 -448 -6 0
-449 448 0
-449 6 0
450 -883 -447 0
-450 883 0
-450 447 0
451 -27 -23 0
-451 27 0
-451 23 0
452 -451 -36 0
-452 451 0
-452 36 0
453 -884 -450 0
-453 884 0
-453 450 0
454 -725 -10 0
-454 725 0
-454 10 0
455 -454 -740 0
-455 454 0
-455 740 0
456 -885 -453 0
-456 885 0
-456 453 0
457 -21 -4 0
-457 21 0
-457 4 0
458 -457 -737 0
-458 457 0
-458 737 0
459 -886 -456 0
-459 886 0
-459 456 0
460 -778 -815 0
-460 778 0
-460 815 0
461 -460 -31 0
-461 460 0
-461 31 0
462 -887 -459 0
-462 887 0
-462 459 0
463 -774 -786 0
-463 774 0
-463 786 0
464 -463 -25 0
-464 463 0
-464 25 0
465 -888 -462 0
-465 888 0
-465 462 0
466 -799 -727 0
-466 799 0
-466 727 0
467 -466 -718 0
-467 466 0
-467 718 0
468 -889 -465 0
-468 889 0
-468 465 0
469 -45 -39 0
-469 45 0
-469 39 0
470 -469 -9 0
-470 469 0
-470 9 0
471 -890 -468 0
-471 890 0
-471 468 0
472 -810 -17 0
-472 810 0
-472 17 0
473 -472 -719 0
-473 472 0
-473 719 0
474 -891 -471 0
-474 891 0
-474 471 0
475 -4 -700 0
-475 4 0
-475 700 0
476 -475 -37 0
-476 475 0
-476 37 0
477 -892 -474 0
-477 892 0
-477 474 0
478 -706 -755 0
-478 706 0
-478 755 0
479 -478 -727 0
-479 478 0
-479 727 0
480 -893 -477 0
-480 893 0
-480 477 0
481 -780 -23 0
-481 780 0
-481 23 0
482 -481 -729 0
-482 481 0
-482 729 0
483 -894 -480 0
-483 894 0
-483 480 0
484 -12 -2 0
-484 12 0
-484 2 0
485 -484 -758 0
-485 484 0
-485 758 0
486 -895 -483 0
-486 895 0
-486 483 0
487 -731 -7 0
-487 731 0
-487 7 0
488 -487 -9 0
-488 487 0
-488 9 0
489 -896 -486 0
-489 896 0
-489 486 0
490 -40 -34 0
-490 40 0
-490 34 0
491 -490 -718 0
-491 490 0
-491 718 0
492 -897 -489 0
-492 897 0
-492 489 0
493 -828 -725 0
-493 828 0
-493 725 0
494 -493 -713 0
-494 493 0
-494 713 0
495 -898 -492 0
-495 898 0
-495 492 0
496 -42 -37 0
-496 42 0
-496 37 0
497 -496 -18 0
-497 496 0
-497 18 0
498 -899 -495 0
-498 899 0
-498 495 0
499 -37 -713 0
-499 37 0
-499 713 0
500 -499 -6 0
-500 499 0
-500 6 0
501 -900 -498 0
-501 900 0
-501 498 0
502 -45 -41 0
-502 45 0
-502 41 0
503 -502 -29 0
-503 502 0
-503 29 0
504 -901 -501 0
-504 901 0
-504 501 0
505 -11 -700 0
-505 11 0
-505 700 0
506 -505 -739 0
-506 505 0
-506 739 0
507 -902 -504 0
-507 902 0
-507 504 0
508 -47 -40 0
-508 47 0
-508 40 0
509 -508 -719 0
-509 508 0
-509 719 0
510 -903 -507 0
-510 903 0
-510 507 0
511 -22 -711 0
-511 22 0
-511 711 0
512 -511 -36 0
-512 511 0
-512 36 0
513 -904 -510 0
-513 904 0
-513 510 0
514 -746 -708 0
-514 746 0
-514 708 0
515 -514 -727 0
-515 514 0
-515 727 0
516 -905 -513 0
-516 905 0
-516 513 0
517 -39 -774 0
-517 39 0
-517 774 0
518 -517 -780 0
-518 517 0
-518 780 0
519 -906 -516 0
-519 906 0
-519 516 0
520 -406 -742 0
-520 406 0
-520 742 0
521 -907 -519 0
-521 907 0
-521 519 0
522 -734 -727 0
-522 734 0
-522 727 0
523 -522 -701 0
-523 522 0
-523 701 0
524 -908 -521 0
-524 908 0
-524 521 0
525 -394 -737 0
-525 394 0
-525 737 0
526 -909 -524 0
-526 909 0
-526 524 0
527 -740 -702 0
-527 740 0
-527 702 0
528 -527 -769 0
-528 527 0
-528 769 0
529 -910 -526 0
-529 910 0
-529 526 0
530 -739 -23 0
-530 739 0
-530 23 0
531 -530 -18 0
-531 530 0
-531 18 0
532 -911 -529 0
-532 911 0
-532 529 0
533 -44 -800 0
-533 44 0
-533 800 0
534 -533 -37 0
-534 533 0
-534 37 0
535 -912 -532 0
-535 912 0
-535 532 0
536 -705 -701 0
-536 705 0
-536 701 0
537 -536 -9 0
-537 536 0
-537 9 0
538 -913 -535 0
-538 913 0
-538 535 0
539 -734 -8 0
-539 734 0
-539 8 0
540 -539 -27 0
-540 539 0
-540 27 0
541 -914 -538 0
-541 914 0
-541 538 0
542 -21 -700 0
-542 21 0
-542 700 0
543 -542 -719 0
-543 542 0
-543 719 0
544 -915 -541 0
-544 915 0
-544 541 0
545 -802 -21 0
-545 802 0
-545 21 0
546 -545 -22 0
-546 545 0
-546 22 0
547 -916 -544 0
-547 916 0
-547 544 0
548 -43 -706 0
-548 43 0
-548 706 0
549 -548 -780 0
-549 548 0
-549 780 0
550 -917 -547 0
-550 917 0
-550 547 0
551 -34 -8 0
-551 34 0
-551 8 0
552 -551 -48 0
-552 551 0
-552 48 0
553 -918 -550 0
-553 918 0
-553 550 0
554 -802 -863 0
-554 802 0
-554 863 0
555 -554 -711 0
-555 554 0
-555 711 0
556 -919 -553 0
-556 919 0
-556 553 0
557 -776 -706 0
-557 776 0
-557 706 0
558 -557 -37 0
-558 557 0
-558 37 0
559 -920 -556 0
-559 920 0
-559 556 0
560 -33 -9 0
-560 33 0
-560 9 0
561 -560 -716 0
-561 560 0
-561 716 0
562 -921 -559 0
-562 921 0
-562 559 0
563 -810 -726 0
-563 810 0
-563 726 0
564 -563 -706 0
-564 563 0
-564 706 0
565 -922 -562 0
-565 922 0
-565 562 0
566 -32 -758 0
-566 32 0
-566 758 0
567 -566 -9 0
-567 566 0
-567 9 0
568 -923 -565 0
-568 923 0
-568 565 0
569 -780 -11 0
-569 780 0
-569 11 0
570 -569 -729 0
-570 569 0
-570 729 0
571 -924 -568 0
-571 924 0
-571 568 0
572 -50 -12 0
-572 50 0
-572 12 0
573 -572 -842 0
-573 572 0
-573 842 0
574 -925 -571 0
-574 925 0
-574 571 0
575 -24 -4 0
-575 24 0
-575 4 0
576 -575 -731 0
-576 575 0
-576 731 0
577 -926 -574 0
-577 926 0
-577 574 0
578 -47 -3 0
-578 47 0
-578 3 0
579 -578 -5 0
-579 578 0
-579 5 0
580 -927 -577 0
-580 927 0
-580 577 0
581 -49 -10 0
-581 49 0
-581 10 0
582 -581 -705 0
-582 581 0
-582 705 0
583 -928 -580 0
-583 928 0
-583 580 0
584 -2 -1 0
-584 2 0
-584 1 0
585 -584 -46 0
-585 584 0
-585 46 0
586 -929 -583 0
-586 929 0
-586 583 0
587 -32 -747 0
-587 32 0
-587 747 0
588 -587 -48 0
-588 587 0
-588 48 0
589 -930 -586 0
-589 930 0
-589 586 0
590 -764 -1 0
-590 764 0
-590 1 0
591 -590 -31 0
-591 590 0
-591 31 0
592 -931 -589 0
-592 931 0
-592 589 0
593 -43 -747 0
-593 43 0
-593 747 0
594 -593 -19 0
-594 593 0
-594 19 0
595 -932 -592 0
-595 932 0
-595 592 0
596 -21 -10 0
-596 21 0
-596 10 0
597 -596 -705 0
-597 596 0
-597 705 0
598 -933 -595 0
-598 933 0
-598 595 0
599 -780 -786 0
-599 780 0
-599 786 0
600 -599 -701 0
-600 599 0
-600 701 0
601 -934 -598 0
-601 934 0
-601 598 0
602 -43 -16 0
-602 43 0
-602 16 0
603 -602 -729 0
-603 602 0
-603 729 0
604 -935 -601 0
-604 935 0
-604 601 0
605 -46 -863 0
-605 46 0
-605 863 0
606 -605 -25 0
-606 605 0
-606 25 0
607 -936 -604 0
-607 936 0
-607 604 0
608 -39 -16 0
-608 39 0
-608 16 0
609 -608 -863 0
-609 608 0
-609 863 0
610 -937 -607 0
-610 937 0
-610 607 0
611 -778 -810 0
-611 778 0
-611 810 0
612 -611 -39 0
-612 611 0
-612 39 0
613 -938 -610 0
-613 938 0
-613 610 0
614 -802 -722 0
-614 802 0
-614 722 0
615 -614 -718 0
-615 614 0
-615 718 0
616 -939 -613 0
-616 939 0
-616 613 0
617 -726 -3 0
-617 726 0
-617 3 0
618 -617 -25 0
-618 617 0
-618 25 0
619 -940 -616 0
-619 940 0
-619 616 0
620 -250 -705 0
-620 250 0
-620 705 0
621 -941 -619 0
-621 941 0
-621 619 0
622 -47 -41 0
-622 47 0
-622 41 0
623 -622 -25 0
-623 622 0
-623 25 0
624 -942 -621 0
-624 942 0
-624 621 0
625 -719 -712 0
-625 719 0
-625 712 0
626 -625 -31 0
-626 625 0
-626 31 0
627 -943 -624 0
-627 943 0
-627 624 0
628 -739 -1 0
-628 739 0
-628 1 0
629 -628 -42 0
-629 628 0
-629 42 0
630 -944 -627 0
-630 944 0
-630 627 0
631 -46 -19 0
-631 46 0
-631 19 0
632 -631 -36 0
-632 631 0
-632 36 0
633 -945 -630 0
-633 945 0
-633 630 0
634 -13 -726 0
-634 13 0
-634 726 0
635 -634 -7 0
-635 634 0
-635 7 0
636 -946 -633 0
-636 946 0
-636 633 0
637 -20 -13 0
-637 20 0
-637 13 0
638 -637 -17 0
-638 637 0
-638 17 0
639 -947 -636 0
-639 947 0
-639 636 0
640 -42 -38 0
-640 42 0
-640 38 0
641 -640 -9 0
-641 640 0
-641 9 0
642 -948 -639 0
-642 948 0
-642 639 0
643 -46 -25 0
-643 46 0
-643 25 0
644 -643 -742 0
-644 643 0
-644 742 0
645 -949 -642 0
-645 949 0
-645 642 0
646 -802 -835 0
-646 802 0
-646 835 0
647 -646 -30 0
-647 646 0
-647 30 0
648 -950 -645 0
-648 950 0
-648 645 0
649 -786 -727 0
-649 786 0
-649 727 0
650 -649 -47 0
-650 649 0
-650 47 0
651 -951 -648 0
-651 951 0
-651 648 0
652 -711 -863 0
-652 711 0
-652 863 0
653 -652 -5 0
-653 652 0
-653 5 0
654 -952 -651 0
-654 952 0
-654 651 0
655 -780 -44 0
-655 780 0
-655 44 0
656 -655 -701 0
-656 655 0
-656 701 0
657 -953 -654 0
-657 953 0
-657 654 0
658 -32 -708 0
-658 32 0
-658 708 0
659 -658 -18 0
-659 658 0
-659 18 0
660 -954 -657 0
-660 954 0
-660 657 0
661 -32 -722 0
-661 32 0
-661 722 0
662 -661 -753 0
-662 661 0
-662 753 0
663 -955 -660 0
-663 955 0
-663 660 0
664 -753 -20 0
-664 753 0
-664 20 0
665 -664 -701 0
-665 664 0
-665 701 0
666 -956 -663 0
-666 956 0
-666 663 0
667 -802 -731 0
-667 802 0
-667 731 0
668 -667 -5 0
-668 667 0
-668 5 0
669 -957 -666 0
-669 957 0
-669 666 0
670 -45 -760 0
-670 45 0
-670 760 0
671 -670 -29 0
-671 670 0
-671 29 0
672 -958 -669 0
-672 958 0
-672 669 0
673 -28 -13 0
-673 28 0
-673 13 0
674 -673 -5 0
-674 673 0
-674 5 0
675 -959 -672 0
-675 959 0
-675 672 0
676 -44 -739 0
-676 44 0
-676 739 0
677 -676 -36 0
-677 676 0
-677 36 0
678 -960 -675 0
-678 960 0
-678 675 0
679 -49 -16 0
-679 49 0
-679 16 0
680 -679 -764 0
-680 679 0
-680 764 0
681 -961 -678 0
-681 961 0
-681 678 0
682 -39 -711 0
-682 39 0
-682 711 0
683 -682 -727 0
-683 682 0
-683 727 0
684 -962 -681 0
-684 962 0
-684 681 0
685 -12 -708 0
-685 12 0
-685 708 0
686 -685 -18 0
-686 685 0
-686 18 0
687 -963 -684 0
-687 963 0
-687 684 0
688 -776 -711 0
-688 776 0
-688 711 0
689 -688 -6 0
-689 688 0
-689 6 0
690 -964 -687 0
-690 964 0
-690 687 0
691 -778 -764 0
-691 778 0
-691 764 0
692 -691 -25 0
-692 691 0
-692 25 0
693 -965 -690 0
-693 965 0
-693 690 0
694 -780 -753 0
-694 780 0
-694 753 0
695 -694 -15 0
-695 694 0
-695 15 0
696 -966 -693 0
-696 966 0
-696 693 0
697 -29 -2 0
-697 29 0
-697 2 0
698 -697 -702 0
-698 697 0
-698 702 0
699 -967 -696 0
-699 967 0
-699 696 0
-700 -1 0
700 1 0
-701 -5 0
701 5 0
-702 -6 0
702 6 0
-703 -54 0
703 54 0
-704 -52 0
704 52 0
-705 -8 0
705 8 0
-706 -7 0
706 7 0
-707 -57 0
707 57 0
-708 -10 0
708 10 0
-709 -60 0
709 60 0
-710 -63 0
710 63 0
-711 -14 0
711 14 0
-712 -13 0
712 13 0
-713 -15 0
713 15 0
-714 -66 0
714 66 0
-715 -17 0
715 17 0
-716 -18 0
716 18 0
-717 -69 0
717 69 0
-718 -9 0
718 9 0
-719 -19 0
719 19 0
-720 -72 0
720 72 0
-721 -21 0
721 21 0
-722 -20 0
722 20 0
-723 -75 0
723 75 0
-724 -78 0
724 78 0
-725 -24 0
725 24 0
-726 -12 0
726 12 0
-727 -3 0
727 3 0
-728 -81 0
728 81 0
-729 -25 0
729 25 0
-730 -84 0
730 84 0
-731 -26 0
731 26 0
-732 -27 0
732 27 0
-733 -87 0
733 87 0
-734 -22 0
734 22 0
-735 -90 0
735 90 0
-736 -93 0
736 93 0
-737 -31 0
737 31 0
-738 -96 0
738 96 0
-739 -33 0
739 33 0
-740 -32 0
740 32 0
-741 -99 0
741 99 0
-742 -36 0
742 36 0
-743 -102 0
743 102 0
-744 -105 0
744 105 0
-745 -108 0
745 108 0
-746 -39 0
746 39 0
-747 -30 0
747 30 0
-748 -111 0
748 111 0
-749 -114 0
749 114 0
-750 -40 0
750 40 0
-751 -117 0
751 117 0
-752 -120 0
752 120 0
-753 -42 0
753 42 0
-754 -123 0
754 123 0
-755 -2 0
755 2 0
-756 -126 0
756 126 0
-757 -129 0
757 129 0
-758 -11 0
758 11 0
-759 -132 0
759 132 0
-760 -44 0
760 44 0
-761 -135 0
761 135 0
-762 -138 0
762 138 0
-763 -141 0
763 141 0
-764 -43 0
764 43 0
-765 -144 0
765 144 0
-766 -147 0
766 147 0
-767 -150 0
767 150 0
-768 -153 0
768 153 0
-769 -46 0
769 46 0
-770 -156 0
770 156 0
-771 -159 0
771 159 0
-772 -162 0
772 162 0
-773 -165 0
773 165 0
-774 -34 0
774 34 0
-775 -168 0
775 168 0
-776 -50 0
776 50 0
-777 -171 0
777 171 0
-778 -45 0
778 45 0
-779 -174 0
779 174 0
-780 -47 0
780 47 0
-781 -177 0
781 177 0
-782 -180 0
782 180 0
-783 -183 0
783 183 0
-784 -186 0
784 186 0
-785 -189 0
785 189 0
-786 -28 0
786 28 0
-787 -192 0
787 192 0
-788 -195 0
788 195 0
-789 -198 0
789 198 0
-790 -201 0
790 201 0
-791 -29 0
791 29 0
-792 -204 0
792 204 0
-793 -207 0
793 207 0
-794 -209 0
794 209 0
-795 -212 0
795 212 0
-796 -215 0
796 215 0
-797 -218 0
797 218 0
-798 -221 0
798 221 0
-799 -41 0
799 41 0
-800 -38 0
800 38 0
-801 -224 0
801 224 0
-802 -49 0
802 49 0
-803 -227 0
803 227 0
-804 -230 0
804 230 0
-805 -233 0
805 233 0
-806 -236 0
806 236 0
-807 -239 0
807 239 0
-808 -242 0
808 242 0
-809 -245 0
809 245 0
-810 -23 0
810 23 0
-811 -248 0
811 248 0
-812 -251 0
812 251 0
-813 -254 0
813 254 0
-814 -257 0
814 257 0
-815 -16 0
815 16 0
-816 -260 0
816 260 0
-817 -263 0
817 263 0
-818 -266 0
818 266 0
-819 -269 0
819 269 0
-820 -272 0
820 272 0
-821 -275 0
821 275 0
-822 -278 0
822 278 0
-823 -281 0
823 281 0
-824 -284 0
824 284 0
-825 -287 0
825 287 0
-826 -290 0
826 290 0
-827 -293 0
827 293 0
-828 -48 0
828 48 0
-829 -296 0
829 296 0
-830 -299 0
830 299 0
-831 -302 0
831 302 0
-832 -305 0
832 305 0
-833 -308 0
833 308 0
-834 -311 0
834 311 0
-835 -35 0
835 35 0
-836 -314 0
836 314 0
-837 -317 0
837 317 0
-838 -320 0
838 320 0
-839 -323 0
839 323 0
-840 -326 0
840 326 0
-841 -329 0
841 329 0
-842 -37 0
842 37 0
-843 -332 0
843 332 0
-844 -335 0
844 335 0
-845 -338 0
845 338 0
-846 -341 0
846 341 0
-847 -344 0
847 344 0
-848 -347 0
848 347 0
-849 -350 0
849 350 0
-850 -353 0
850 353 0
-851 -356 0
851 356 0
-852 -359 0
852 359 0
-853 -362 0
853 362 0
-854 -365 0
854 365 0
-855 -368 0
855 368 0
-856 -371 0
856 371 0
-857 -374 0
857 374 0
-858 -377 0
858 377 0
-859 -380 0
859 380 0
-860 -383 0
860 383 0
-861 -386 0
861 386 0
-862 -389 0
862 389 0
-863 -4 0
863 4 0
-864 -392 0
864 392 0
-865 -395 0
865 395 0
-866 -398 0
866 398 0
-867 -401 0
867 401 0
-868 -404 0
868 404 0
-869 -407 0
869 407 0
-870 -410 0
870 410 0
-871 -413 0
871 413 0
-872 -416 0
872 416 0
-873 -419 0
873 419 0
-874 -422 0
874 422 0
-875 -425 0
875 425 0
-876 -428 0
876 428 0
-877 -431 0
877 431 0
-878 -434 0
878 434 0
-879 -437 0
879 437 0
-880 -440 0
880 440 0
-881 -443 0
881 443 0
-882 -446 0
882 446 0
-883 -449 0
883 449 0
-884 -452 0
884 452 0
-885 -455 0
885 455 0
-886 -458 0
886 458 0
-887 -461 0
887 461 0
-888 -464 0
888 464 0
-889 -467 0
889 467 0
-890 -470 0
890 470 0
-891 -473 0
891 473 0
-892 -476 0
892 476 0
-893 -479 0
893 479 0
-894 -482 0
894 482 0
-895 -485 0
895 485 0
-896 -488 0
896 488 0
-897 -491 0
897 491 0
-898 -494 0
898 494 0
-899 -497 0
899 497 0
-900 -500 0
900 500 0
-901 -503 0
901 503 0
-902 -506 0
902 506 0
-903 -509 0
903 509 0
-904 -512 0
904 512 0
-905 -515 0
905 515 0
-906 -518 0
906 518 0
-907 -520 0
907 520 0
-908 -523 0
908 523 0
-909 -525 0
909 525 0
-910 -528 0
910 528 0
-911 -531 0
911 531 0
-912 -534 0
912 534 0
-913 -537 0
913 537 0
-914 -540 0
914 540 0
-915 -543 0
915 543 0
-916 -546 0
916 546 0
-917 -549 0
917 549 0
-918 -552 0
918 552 0
-919 -555 0
919 555 0
-920 -558 0
920 558 0
-921 -561 0
921 561 0
-922 -564 0
922 564 0
-923 -567 0
923 567 0
-924 -570 0
924 570 0
-925 -573 0
925 573 0
-926 -576 0
926 576 0
-927 -579 0
927 579 0
-928 -582 0
928 582 0
-929 -585 0
929 585 0
-930 -588 0
930 588 0
-931 -591 0
931 591 0
-932 -594 0
932 594 0
-933 -597 0
933 597 0
-934 -600 0
934 600 0
-935 -603 0
935 603 0
-936 -606 0
936 606 0
-937 -609 0
937 609 0
-938 -612 0
938 612 0
-939 -615 0
939 615 0
-940 -618 0
940 618 0
-941 -620 0
941 620 0
-942 -623 0
942 623 0
-943 -626 0
943 626 0
-944 -629 0
944 629 0
-945 -632 0
945 632 0
-946 -635 0
946 635 0
-947 -638 0
947 638 0
-948 -641 0
948 641 0
-949 -644 0
949 644 0
-950 -647 0
950 647 0
-951 -650 0
951 650 0
-952 -653 0
952 653 0
-953 -656 0
953 656 0
-954 -659 0
954 659 0
-955 -662 0
955 662 0
-956 -665 0
956 665 0
-957 -668 0
957 668 0
-958 -671 0
958 671 0
-959 -674 0
959 674 0
-960 -677 0
960 677 0
-961 -680 0
961 680 0
-962 -683 0
962 683 0
-963 -686 0
963 686 0
-964 -689 0
964 689 0
-965 -692 0
965 692 0
-966 -695 0
966 695 0
-967 -698 0
967 698 0
699 0
